(set-info :smt-lib-version 2.6)
(set-logic QF_IDL)
(set-info :source |
Queens benchmarks generated by Hyondeuk Kim in SMT-LIB format.
|)
(set-info :category "crafted")
(set-info :status sat)
(declare-fun x0 () Int)
(declare-fun x1 () Int)
(declare-fun x2 () Int)
(declare-fun x3 () Int)
(declare-fun x4 () Int)
(declare-fun x5 () Int)
(declare-fun x6 () Int)
(declare-fun x7 () Int)
(declare-fun x8 () Int)
(declare-fun x9 () Int)
(declare-fun x10 () Int)
(declare-fun x11 () Int)
(declare-fun x12 () Int)
(declare-fun x13 () Int)
(declare-fun x14 () Int)
(declare-fun x15 () Int)
(declare-fun x16 () Int)
(declare-fun x17 () Int)
(declare-fun x18 () Int)
(declare-fun x19 () Int)
(declare-fun x20 () Int)
(declare-fun x21 () Int)
(declare-fun x22 () Int)
(declare-fun x23 () Int)
(declare-fun x24 () Int)
(declare-fun x25 () Int)
(assert (let ((?v_0 (- x0 x25)) (?v_1 (- x1 x25)) (?v_2 (- x2 x25)) (?v_3 (- x3 x25)) (?v_4 (- x4 x25)) (?v_5 (- x5 x25)) (?v_6 (- x6 x25)) (?v_7 (- x7 x25)) (?v_8 (- x8 x25)) (?v_9 (- x9 x25)) (?v_10 (- x10 x25)) (?v_11 (- x11 x25)) (?v_12 (- x12 x25)) (?v_13 (- x13 x25)) (?v_14 (- x14 x25)) (?v_15 (- x15 x25)) (?v_16 (- x16 x25)) (?v_17 (- x17 x25)) (?v_18 (- x18 x25)) (?v_19 (- x19 x25)) (?v_20 (- x20 x25)) (?v_21 (- x21 x25)) (?v_22 (- x22 x25)) (?v_23 (- x23 x25)) (?v_24 (- x24 x25)) (?v_25 (- x0 x1)) (?v_26 (- x0 x2)) (?v_27 (- x0 x3)) (?v_28 (- x0 x4)) (?v_29 (- x0 x5)) (?v_30 (- x0 x6)) (?v_31 (- x0 x7)) (?v_32 (- x0 x8)) (?v_33 (- x0 x9)) (?v_34 (- x0 x10)) (?v_35 (- x0 x11)) (?v_36 (- x0 x12)) (?v_37 (- x0 x13)) (?v_38 (- x0 x14)) (?v_39 (- x0 x15)) (?v_40 (- x0 x16)) (?v_41 (- x0 x17)) (?v_42 (- x0 x18)) (?v_43 (- x0 x19)) (?v_44 (- x0 x20)) (?v_45 (- x0 x21)) (?v_46 (- x0 x22)) (?v_47 (- x0 x23)) (?v_48 (- x0 x24)) (?v_49 (- x1 x2)) (?v_50 (- x1 x3)) (?v_51 (- x1 x4)) (?v_52 (- x1 x5)) (?v_53 (- x1 x6)) (?v_54 (- x1 x7)) (?v_55 (- x1 x8)) (?v_56 (- x1 x9)) (?v_57 (- x1 x10)) (?v_58 (- x1 x11)) (?v_59 (- x1 x12)) (?v_60 (- x1 x13)) (?v_61 (- x1 x14)) (?v_62 (- x1 x15)) (?v_63 (- x1 x16)) (?v_64 (- x1 x17)) (?v_65 (- x1 x18)) (?v_66 (- x1 x19)) (?v_67 (- x1 x20)) (?v_68 (- x1 x21)) (?v_69 (- x1 x22)) (?v_70 (- x1 x23)) (?v_71 (- x1 x24)) (?v_72 (- x2 x3)) (?v_73 (- x2 x4)) (?v_74 (- x2 x5)) (?v_75 (- x2 x6)) (?v_76 (- x2 x7)) (?v_77 (- x2 x8)) (?v_78 (- x2 x9)) (?v_79 (- x2 x10)) (?v_80 (- x2 x11)) (?v_81 (- x2 x12)) (?v_82 (- x2 x13)) (?v_83 (- x2 x14)) (?v_84 (- x2 x15)) (?v_85 (- x2 x16)) (?v_86 (- x2 x17)) (?v_87 (- x2 x18)) (?v_88 (- x2 x19)) (?v_89 (- x2 x20)) (?v_90 (- x2 x21)) (?v_91 (- x2 x22)) (?v_92 (- x2 x23)) (?v_93 (- x2 x24)) (?v_94 (- x3 x4)) (?v_95 (- x3 x5)) (?v_96 (- x3 x6)) (?v_97 (- x3 x7)) (?v_98 (- x3 x8)) (?v_99 (- x3 x9)) (?v_100 (- x3 x10)) (?v_101 (- x3 x11)) (?v_102 (- x3 x12)) (?v_103 (- x3 x13)) (?v_104 (- x3 x14)) (?v_105 (- x3 x15)) (?v_106 (- x3 x16)) (?v_107 (- x3 x17)) (?v_108 (- x3 x18)) (?v_109 (- x3 x19)) (?v_110 (- x3 x20)) (?v_111 (- x3 x21)) (?v_112 (- x3 x22)) (?v_113 (- x3 x23)) (?v_114 (- x3 x24)) (?v_115 (- x4 x5)) (?v_116 (- x4 x6)) (?v_117 (- x4 x7)) (?v_118 (- x4 x8)) (?v_119 (- x4 x9)) (?v_120 (- x4 x10)) (?v_121 (- x4 x11)) (?v_122 (- x4 x12)) (?v_123 (- x4 x13)) (?v_124 (- x4 x14)) (?v_125 (- x4 x15)) (?v_126 (- x4 x16)) (?v_127 (- x4 x17)) (?v_128 (- x4 x18)) (?v_129 (- x4 x19)) (?v_130 (- x4 x20)) (?v_131 (- x4 x21)) (?v_132 (- x4 x22)) (?v_133 (- x4 x23)) (?v_134 (- x4 x24)) (?v_135 (- x5 x6)) (?v_136 (- x5 x7)) (?v_137 (- x5 x8)) (?v_138 (- x5 x9)) (?v_139 (- x5 x10)) (?v_140 (- x5 x11)) (?v_141 (- x5 x12)) (?v_142 (- x5 x13)) (?v_143 (- x5 x14)) (?v_144 (- x5 x15)) (?v_145 (- x5 x16)) (?v_146 (- x5 x17)) (?v_147 (- x5 x18)) (?v_148 (- x5 x19)) (?v_149 (- x5 x20)) (?v_150 (- x5 x21)) (?v_151 (- x5 x22)) (?v_152 (- x5 x23)) (?v_153 (- x5 x24)) (?v_154 (- x6 x7)) (?v_155 (- x6 x8)) (?v_156 (- x6 x9)) (?v_157 (- x6 x10)) (?v_158 (- x6 x11)) (?v_159 (- x6 x12)) (?v_160 (- x6 x13)) (?v_161 (- x6 x14)) (?v_162 (- x6 x15)) (?v_163 (- x6 x16)) (?v_164 (- x6 x17)) (?v_165 (- x6 x18)) (?v_166 (- x6 x19)) (?v_167 (- x6 x20)) (?v_168 (- x6 x21)) (?v_169 (- x6 x22)) (?v_170 (- x6 x23)) (?v_171 (- x6 x24)) (?v_172 (- x7 x8)) (?v_173 (- x7 x9)) (?v_174 (- x7 x10)) (?v_175 (- x7 x11)) (?v_176 (- x7 x12)) (?v_177 (- x7 x13)) (?v_178 (- x7 x14)) (?v_179 (- x7 x15)) (?v_180 (- x7 x16)) (?v_181 (- x7 x17)) (?v_182 (- x7 x18)) (?v_183 (- x7 x19)) (?v_184 (- x7 x20)) (?v_185 (- x7 x21)) (?v_186 (- x7 x22)) (?v_187 (- x7 x23)) (?v_188 (- x7 x24)) (?v_189 (- x8 x9)) (?v_190 (- x8 x10)) (?v_191 (- x8 x11)) (?v_192 (- x8 x12)) (?v_193 (- x8 x13)) (?v_194 (- x8 x14)) (?v_195 (- x8 x15)) (?v_196 (- x8 x16)) (?v_197 (- x8 x17)) (?v_198 (- x8 x18)) (?v_199 (- x8 x19)) (?v_200 (- x8 x20)) (?v_201 (- x8 x21)) (?v_202 (- x8 x22)) (?v_203 (- x8 x23)) (?v_204 (- x8 x24)) (?v_205 (- x9 x10)) (?v_206 (- x9 x11)) (?v_207 (- x9 x12)) (?v_208 (- x9 x13)) (?v_209 (- x9 x14)) (?v_210 (- x9 x15)) (?v_211 (- x9 x16)) (?v_212 (- x9 x17)) (?v_213 (- x9 x18)) (?v_214 (- x9 x19)) (?v_215 (- x9 x20)) (?v_216 (- x9 x21)) (?v_217 (- x9 x22)) (?v_218 (- x9 x23)) (?v_219 (- x9 x24)) (?v_220 (- x10 x11)) (?v_221 (- x10 x12)) (?v_222 (- x10 x13)) (?v_223 (- x10 x14)) (?v_224 (- x10 x15)) (?v_225 (- x10 x16)) (?v_226 (- x10 x17)) (?v_227 (- x10 x18)) (?v_228 (- x10 x19)) (?v_229 (- x10 x20)) (?v_230 (- x10 x21)) (?v_231 (- x10 x22)) (?v_232 (- x10 x23)) (?v_233 (- x10 x24)) (?v_234 (- x11 x12)) (?v_235 (- x11 x13)) (?v_236 (- x11 x14)) (?v_237 (- x11 x15)) (?v_238 (- x11 x16)) (?v_239 (- x11 x17)) (?v_240 (- x11 x18)) (?v_241 (- x11 x19)) (?v_242 (- x11 x20)) (?v_243 (- x11 x21)) (?v_244 (- x11 x22)) (?v_245 (- x11 x23)) (?v_246 (- x11 x24)) (?v_247 (- x12 x13)) (?v_248 (- x12 x14)) (?v_249 (- x12 x15)) (?v_250 (- x12 x16)) (?v_251 (- x12 x17)) (?v_252 (- x12 x18)) (?v_253 (- x12 x19)) (?v_254 (- x12 x20)) (?v_255 (- x12 x21)) (?v_256 (- x12 x22)) (?v_257 (- x12 x23)) (?v_258 (- x12 x24)) (?v_259 (- x13 x14)) (?v_260 (- x13 x15)) (?v_261 (- x13 x16)) (?v_262 (- x13 x17)) (?v_263 (- x13 x18)) (?v_264 (- x13 x19)) (?v_265 (- x13 x20)) (?v_266 (- x13 x21)) (?v_267 (- x13 x22)) (?v_268 (- x13 x23)) (?v_269 (- x13 x24)) (?v_270 (- x14 x15)) (?v_271 (- x14 x16)) (?v_272 (- x14 x17)) (?v_273 (- x14 x18)) (?v_274 (- x14 x19)) (?v_275 (- x14 x20)) (?v_276 (- x14 x21)) (?v_277 (- x14 x22)) (?v_278 (- x14 x23)) (?v_279 (- x14 x24)) (?v_280 (- x15 x16)) (?v_281 (- x15 x17)) (?v_282 (- x15 x18)) (?v_283 (- x15 x19)) (?v_284 (- x15 x20)) (?v_285 (- x15 x21)) (?v_286 (- x15 x22)) (?v_287 (- x15 x23)) (?v_288 (- x15 x24)) (?v_289 (- x16 x17)) (?v_290 (- x16 x18)) (?v_291 (- x16 x19)) (?v_292 (- x16 x20)) (?v_293 (- x16 x21)) (?v_294 (- x16 x22)) (?v_295 (- x16 x23)) (?v_296 (- x16 x24)) (?v_297 (- x17 x18)) (?v_298 (- x17 x19)) (?v_299 (- x17 x20)) (?v_300 (- x17 x21)) (?v_301 (- x17 x22)) (?v_302 (- x17 x23)) (?v_303 (- x17 x24)) (?v_304 (- x18 x19)) (?v_305 (- x18 x20)) (?v_306 (- x18 x21)) (?v_307 (- x18 x22)) (?v_308 (- x18 x23)) (?v_309 (- x18 x24)) (?v_310 (- x19 x20)) (?v_311 (- x19 x21)) (?v_312 (- x19 x22)) (?v_313 (- x19 x23)) (?v_314 (- x19 x24)) (?v_315 (- x20 x21)) (?v_316 (- x20 x22)) (?v_317 (- x20 x23)) (?v_318 (- x20 x24)) (?v_319 (- x21 x22)) (?v_320 (- x21 x23)) (?v_321 (- x21 x24)) (?v_322 (- x22 x23)) (?v_323 (- x22 x24)) (?v_324 (- x23 x24))) (and (<= ?v_0 24) (>= ?v_0 0) (<= ?v_1 24) (>= ?v_1 0) (<= ?v_2 24) (>= ?v_2 0) (<= ?v_3 24) (>= ?v_3 0) (<= ?v_4 24) (>= ?v_4 0) (<= ?v_5 24) (>= ?v_5 0) (<= ?v_6 24) (>= ?v_6 0) (<= ?v_7 24) (>= ?v_7 0) (<= ?v_8 24) (>= ?v_8 0) (<= ?v_9 24) (>= ?v_9 0) (<= ?v_10 24) (>= ?v_10 0) (<= ?v_11 24) (>= ?v_11 0) (<= ?v_12 24) (>= ?v_12 0) (<= ?v_13 24) (>= ?v_13 0) (<= ?v_14 24) (>= ?v_14 0) (<= ?v_15 24) (>= ?v_15 0) (<= ?v_16 24) (>= ?v_16 0) (<= ?v_17 24) (>= ?v_17 0) (<= ?v_18 24) (>= ?v_18 0) (<= ?v_19 24) (>= ?v_19 0) (<= ?v_20 24) (>= ?v_20 0) (<= ?v_21 24) (>= ?v_21 0) (<= ?v_22 24) (>= ?v_22 0) (<= ?v_23 24) (>= ?v_23 0) (<= ?v_24 24) (>= ?v_24 0) (not (= x0 x1)) (not (= x0 x2)) (not (= x0 x3)) (not (= x0 x4)) (not (= x0 x5)) (not (= x0 x6)) (not (= x0 x7)) (not (= x0 x8)) (not (= x0 x9)) (not (= x0 x10)) (not (= x0 x11)) (not (= x0 x12)) (not (= x0 x13)) (not (= x0 x14)) (not (= x0 x15)) (not (= x0 x16)) (not (= x0 x17)) (not (= x0 x18)) (not (= x0 x19)) (not (= x0 x20)) (not (= x0 x21)) (not (= x0 x22)) (not (= x0 x23)) (not (= x0 x24)) (not (= x1 x2)) (not (= x1 x3)) (not (= x1 x4)) (not (= x1 x5)) (not (= x1 x6)) (not (= x1 x7)) (not (= x1 x8)) (not (= x1 x9)) (not (= x1 x10)) (not (= x1 x11)) (not (= x1 x12)) (not (= x1 x13)) (not (= x1 x14)) (not (= x1 x15)) (not (= x1 x16)) (not (= x1 x17)) (not (= x1 x18)) (not (= x1 x19)) (not (= x1 x20)) (not (= x1 x21)) (not (= x1 x22)) (not (= x1 x23)) (not (= x1 x24)) (not (= x2 x3)) (not (= x2 x4)) (not (= x2 x5)) (not (= x2 x6)) (not (= x2 x7)) (not (= x2 x8)) (not (= x2 x9)) (not (= x2 x10)) (not (= x2 x11)) (not (= x2 x12)) (not (= x2 x13)) (not (= x2 x14)) (not (= x2 x15)) (not (= x2 x16)) (not (= x2 x17)) (not (= x2 x18)) (not (= x2 x19)) (not (= x2 x20)) (not (= x2 x21)) (not (= x2 x22)) (not (= x2 x23)) (not (= x2 x24)) (not (= x3 x4)) (not (= x3 x5)) (not (= x3 x6)) (not (= x3 x7)) (not (= x3 x8)) (not (= x3 x9)) (not (= x3 x10)) (not (= x3 x11)) (not (= x3 x12)) (not (= x3 x13)) (not (= x3 x14)) (not (= x3 x15)) (not (= x3 x16)) (not (= x3 x17)) (not (= x3 x18)) (not (= x3 x19)) (not (= x3 x20)) (not (= x3 x21)) (not (= x3 x22)) (not (= x3 x23)) (not (= x3 x24)) (not (= x4 x5)) (not (= x4 x6)) (not (= x4 x7)) (not (= x4 x8)) (not (= x4 x9)) (not (= x4 x10)) (not (= x4 x11)) (not (= x4 x12)) (not (= x4 x13)) (not (= x4 x14)) (not (= x4 x15)) (not (= x4 x16)) (not (= x4 x17)) (not (= x4 x18)) (not (= x4 x19)) (not (= x4 x20)) (not (= x4 x21)) (not (= x4 x22)) (not (= x4 x23)) (not (= x4 x24)) (not (= x5 x6)) (not (= x5 x7)) (not (= x5 x8)) (not (= x5 x9)) (not (= x5 x10)) (not (= x5 x11)) (not (= x5 x12)) (not (= x5 x13)) (not (= x5 x14)) (not (= x5 x15)) (not (= x5 x16)) (not (= x5 x17)) (not (= x5 x18)) (not (= x5 x19)) (not (= x5 x20)) (not (= x5 x21)) (not (= x5 x22)) (not (= x5 x23)) (not (= x5 x24)) (not (= x6 x7)) (not (= x6 x8)) (not (= x6 x9)) (not (= x6 x10)) (not (= x6 x11)) (not (= x6 x12)) (not (= x6 x13)) (not (= x6 x14)) (not (= x6 x15)) (not (= x6 x16)) (not (= x6 x17)) (not (= x6 x18)) (not (= x6 x19)) (not (= x6 x20)) (not (= x6 x21)) (not (= x6 x22)) (not (= x6 x23)) (not (= x6 x24)) (not (= x7 x8)) (not (= x7 x9)) (not (= x7 x10)) (not (= x7 x11)) (not (= x7 x12)) (not (= x7 x13)) (not (= x7 x14)) (not (= x7 x15)) (not (= x7 x16)) (not (= x7 x17)) (not (= x7 x18)) (not (= x7 x19)) (not (= x7 x20)) (not (= x7 x21)) (not (= x7 x22)) (not (= x7 x23)) (not (= x7 x24)) (not (= x8 x9)) (not (= x8 x10)) (not (= x8 x11)) (not (= x8 x12)) (not (= x8 x13)) (not (= x8 x14)) (not (= x8 x15)) (not (= x8 x16)) (not (= x8 x17)) (not (= x8 x18)) (not (= x8 x19)) (not (= x8 x20)) (not (= x8 x21)) (not (= x8 x22)) (not (= x8 x23)) (not (= x8 x24)) (not (= x9 x10)) (not (= x9 x11)) (not (= x9 x12)) (not (= x9 x13)) (not (= x9 x14)) (not (= x9 x15)) (not (= x9 x16)) (not (= x9 x17)) (not (= x9 x18)) (not (= x9 x19)) (not (= x9 x20)) (not (= x9 x21)) (not (= x9 x22)) (not (= x9 x23)) (not (= x9 x24)) (not (= x10 x11)) (not (= x10 x12)) (not (= x10 x13)) (not (= x10 x14)) (not (= x10 x15)) (not (= x10 x16)) (not (= x10 x17)) (not (= x10 x18)) (not (= x10 x19)) (not (= x10 x20)) (not (= x10 x21)) (not (= x10 x22)) (not (= x10 x23)) (not (= x10 x24)) (not (= x11 x12)) (not (= x11 x13)) (not (= x11 x14)) (not (= x11 x15)) (not (= x11 x16)) (not (= x11 x17)) (not (= x11 x18)) (not (= x11 x19)) (not (= x11 x20)) (not (= x11 x21)) (not (= x11 x22)) (not (= x11 x23)) (not (= x11 x24)) (not (= x12 x13)) (not (= x12 x14)) (not (= x12 x15)) (not (= x12 x16)) (not (= x12 x17)) (not (= x12 x18)) (not (= x12 x19)) (not (= x12 x20)) (not (= x12 x21)) (not (= x12 x22)) (not (= x12 x23)) (not (= x12 x24)) (not (= x13 x14)) (not (= x13 x15)) (not (= x13 x16)) (not (= x13 x17)) (not (= x13 x18)) (not (= x13 x19)) (not (= x13 x20)) (not (= x13 x21)) (not (= x13 x22)) (not (= x13 x23)) (not (= x13 x24)) (not (= x14 x15)) (not (= x14 x16)) (not (= x14 x17)) (not (= x14 x18)) (not (= x14 x19)) (not (= x14 x20)) (not (= x14 x21)) (not (= x14 x22)) (not (= x14 x23)) (not (= x14 x24)) (not (= x15 x16)) (not (= x15 x17)) (not (= x15 x18)) (not (= x15 x19)) (not (= x15 x20)) (not (= x15 x21)) (not (= x15 x22)) (not (= x15 x23)) (not (= x15 x24)) (not (= x16 x17)) (not (= x16 x18)) (not (= x16 x19)) (not (= x16 x20)) (not (= x16 x21)) (not (= x16 x22)) (not (= x16 x23)) (not (= x16 x24)) (not (= x17 x18)) (not (= x17 x19)) (not (= x17 x20)) (not (= x17 x21)) (not (= x17 x22)) (not (= x17 x23)) (not (= x17 x24)) (not (= x18 x19)) (not (= x18 x20)) (not (= x18 x21)) (not (= x18 x22)) (not (= x18 x23)) (not (= x18 x24)) (not (= x19 x20)) (not (= x19 x21)) (not (= x19 x22)) (not (= x19 x23)) (not (= x19 x24)) (not (= x20 x21)) (not (= x20 x22)) (not (= x20 x23)) (not (= x20 x24)) (not (= x21 x22)) (not (= x21 x23)) (not (= x21 x24)) (not (= x22 x23)) (not (= x22 x24)) (not (= x23 x24)) (not (= ?v_25 1)) (not (= ?v_25 (- 1))) (not (= ?v_25 24)) (not (= ?v_25 (- 24))) (not (= ?v_26 2)) (not (= ?v_26 (- 2))) (not (= ?v_26 23)) (not (= ?v_26 (- 23))) (not (= ?v_27 3)) (not (= ?v_27 (- 3))) (not (= ?v_27 22)) (not (= ?v_27 (- 22))) (not (= ?v_28 4)) (not (= ?v_28 (- 4))) (not (= ?v_28 21)) (not (= ?v_28 (- 21))) (not (= ?v_29 5)) (not (= ?v_29 (- 5))) (not (= ?v_29 20)) (not (= ?v_29 (- 20))) (not (= ?v_30 6)) (not (= ?v_30 (- 6))) (not (= ?v_30 19)) (not (= ?v_30 (- 19))) (not (= ?v_31 7)) (not (= ?v_31 (- 7))) (not (= ?v_31 18)) (not (= ?v_31 (- 18))) (not (= ?v_32 8)) (not (= ?v_32 (- 8))) (not (= ?v_32 17)) (not (= ?v_32 (- 17))) (not (= ?v_33 9)) (not (= ?v_33 (- 9))) (not (= ?v_33 16)) (not (= ?v_33 (- 16))) (not (= ?v_34 10)) (not (= ?v_34 (- 10))) (not (= ?v_34 15)) (not (= ?v_34 (- 15))) (not (= ?v_35 11)) (not (= ?v_35 (- 11))) (not (= ?v_35 14)) (not (= ?v_35 (- 14))) (not (= ?v_36 12)) (not (= ?v_36 (- 12))) (not (= ?v_36 13)) (not (= ?v_36 (- 13))) (not (= ?v_37 13)) (not (= ?v_37 (- 13))) (not (= ?v_37 12)) (not (= ?v_37 (- 12))) (not (= ?v_38 14)) (not (= ?v_38 (- 14))) (not (= ?v_38 11)) (not (= ?v_38 (- 11))) (not (= ?v_39 15)) (not (= ?v_39 (- 15))) (not (= ?v_39 10)) (not (= ?v_39 (- 10))) (not (= ?v_40 16)) (not (= ?v_40 (- 16))) (not (= ?v_40 9)) (not (= ?v_40 (- 9))) (not (= ?v_41 17)) (not (= ?v_41 (- 17))) (not (= ?v_41 8)) (not (= ?v_41 (- 8))) (not (= ?v_42 18)) (not (= ?v_42 (- 18))) (not (= ?v_42 7)) (not (= ?v_42 (- 7))) (not (= ?v_43 19)) (not (= ?v_43 (- 19))) (not (= ?v_43 6)) (not (= ?v_43 (- 6))) (not (= ?v_44 20)) (not (= ?v_44 (- 20))) (not (= ?v_44 5)) (not (= ?v_44 (- 5))) (not (= ?v_45 21)) (not (= ?v_45 (- 21))) (not (= ?v_45 4)) (not (= ?v_45 (- 4))) (not (= ?v_46 22)) (not (= ?v_46 (- 22))) (not (= ?v_46 3)) (not (= ?v_46 (- 3))) (not (= ?v_47 23)) (not (= ?v_47 (- 23))) (not (= ?v_47 2)) (not (= ?v_47 (- 2))) (not (= ?v_48 24)) (not (= ?v_48 (- 24))) (not (= ?v_48 1)) (not (= ?v_48 (- 1))) (not (= ?v_49 1)) (not (= ?v_49 (- 1))) (not (= ?v_49 24)) (not (= ?v_49 (- 24))) (not (= ?v_50 2)) (not (= ?v_50 (- 2))) (not (= ?v_50 23)) (not (= ?v_50 (- 23))) (not (= ?v_51 3)) (not (= ?v_51 (- 3))) (not (= ?v_51 22)) (not (= ?v_51 (- 22))) (not (= ?v_52 4)) (not (= ?v_52 (- 4))) (not (= ?v_52 21)) (not (= ?v_52 (- 21))) (not (= ?v_53 5)) (not (= ?v_53 (- 5))) (not (= ?v_53 20)) (not (= ?v_53 (- 20))) (not (= ?v_54 6)) (not (= ?v_54 (- 6))) (not (= ?v_54 19)) (not (= ?v_54 (- 19))) (not (= ?v_55 7)) (not (= ?v_55 (- 7))) (not (= ?v_55 18)) (not (= ?v_55 (- 18))) (not (= ?v_56 8)) (not (= ?v_56 (- 8))) (not (= ?v_56 17)) (not (= ?v_56 (- 17))) (not (= ?v_57 9)) (not (= ?v_57 (- 9))) (not (= ?v_57 16)) (not (= ?v_57 (- 16))) (not (= ?v_58 10)) (not (= ?v_58 (- 10))) (not (= ?v_58 15)) (not (= ?v_58 (- 15))) (not (= ?v_59 11)) (not (= ?v_59 (- 11))) (not (= ?v_59 14)) (not (= ?v_59 (- 14))) (not (= ?v_60 12)) (not (= ?v_60 (- 12))) (not (= ?v_60 13)) (not (= ?v_60 (- 13))) (not (= ?v_61 13)) (not (= ?v_61 (- 13))) (not (= ?v_61 12)) (not (= ?v_61 (- 12))) (not (= ?v_62 14)) (not (= ?v_62 (- 14))) (not (= ?v_62 11)) (not (= ?v_62 (- 11))) (not (= ?v_63 15)) (not (= ?v_63 (- 15))) (not (= ?v_63 10)) (not (= ?v_63 (- 10))) (not (= ?v_64 16)) (not (= ?v_64 (- 16))) (not (= ?v_64 9)) (not (= ?v_64 (- 9))) (not (= ?v_65 17)) (not (= ?v_65 (- 17))) (not (= ?v_65 8)) (not (= ?v_65 (- 8))) (not (= ?v_66 18)) (not (= ?v_66 (- 18))) (not (= ?v_66 7)) (not (= ?v_66 (- 7))) (not (= ?v_67 19)) (not (= ?v_67 (- 19))) (not (= ?v_67 6)) (not (= ?v_67 (- 6))) (not (= ?v_68 20)) (not (= ?v_68 (- 20))) (not (= ?v_68 5)) (not (= ?v_68 (- 5))) (not (= ?v_69 21)) (not (= ?v_69 (- 21))) (not (= ?v_69 4)) (not (= ?v_69 (- 4))) (not (= ?v_70 22)) (not (= ?v_70 (- 22))) (not (= ?v_70 3)) (not (= ?v_70 (- 3))) (not (= ?v_71 23)) (not (= ?v_71 (- 23))) (not (= ?v_71 2)) (not (= ?v_71 (- 2))) (not (= ?v_72 1)) (not (= ?v_72 (- 1))) (not (= ?v_72 24)) (not (= ?v_72 (- 24))) (not (= ?v_73 2)) (not (= ?v_73 (- 2))) (not (= ?v_73 23)) (not (= ?v_73 (- 23))) (not (= ?v_74 3)) (not (= ?v_74 (- 3))) (not (= ?v_74 22)) (not (= ?v_74 (- 22))) (not (= ?v_75 4)) (not (= ?v_75 (- 4))) (not (= ?v_75 21)) (not (= ?v_75 (- 21))) (not (= ?v_76 5)) (not (= ?v_76 (- 5))) (not (= ?v_76 20)) (not (= ?v_76 (- 20))) (not (= ?v_77 6)) (not (= ?v_77 (- 6))) (not (= ?v_77 19)) (not (= ?v_77 (- 19))) (not (= ?v_78 7)) (not (= ?v_78 (- 7))) (not (= ?v_78 18)) (not (= ?v_78 (- 18))) (not (= ?v_79 8)) (not (= ?v_79 (- 8))) (not (= ?v_79 17)) (not (= ?v_79 (- 17))) (not (= ?v_80 9)) (not (= ?v_80 (- 9))) (not (= ?v_80 16)) (not (= ?v_80 (- 16))) (not (= ?v_81 10)) (not (= ?v_81 (- 10))) (not (= ?v_81 15)) (not (= ?v_81 (- 15))) (not (= ?v_82 11)) (not (= ?v_82 (- 11))) (not (= ?v_82 14)) (not (= ?v_82 (- 14))) (not (= ?v_83 12)) (not (= ?v_83 (- 12))) (not (= ?v_83 13)) (not (= ?v_83 (- 13))) (not (= ?v_84 13)) (not (= ?v_84 (- 13))) (not (= ?v_84 12)) (not (= ?v_84 (- 12))) (not (= ?v_85 14)) (not (= ?v_85 (- 14))) (not (= ?v_85 11)) (not (= ?v_85 (- 11))) (not (= ?v_86 15)) (not (= ?v_86 (- 15))) (not (= ?v_86 10)) (not (= ?v_86 (- 10))) (not (= ?v_87 16)) (not (= ?v_87 (- 16))) (not (= ?v_87 9)) (not (= ?v_87 (- 9))) (not (= ?v_88 17)) (not (= ?v_88 (- 17))) (not (= ?v_88 8)) (not (= ?v_88 (- 8))) (not (= ?v_89 18)) (not (= ?v_89 (- 18))) (not (= ?v_89 7)) (not (= ?v_89 (- 7))) (not (= ?v_90 19)) (not (= ?v_90 (- 19))) (not (= ?v_90 6)) (not (= ?v_90 (- 6))) (not (= ?v_91 20)) (not (= ?v_91 (- 20))) (not (= ?v_91 5)) (not (= ?v_91 (- 5))) (not (= ?v_92 21)) (not (= ?v_92 (- 21))) (not (= ?v_92 4)) (not (= ?v_92 (- 4))) (not (= ?v_93 22)) (not (= ?v_93 (- 22))) (not (= ?v_93 3)) (not (= ?v_93 (- 3))) (not (= ?v_94 1)) (not (= ?v_94 (- 1))) (not (= ?v_94 24)) (not (= ?v_94 (- 24))) (not (= ?v_95 2)) (not (= ?v_95 (- 2))) (not (= ?v_95 23)) (not (= ?v_95 (- 23))) (not (= ?v_96 3)) (not (= ?v_96 (- 3))) (not (= ?v_96 22)) (not (= ?v_96 (- 22))) (not (= ?v_97 4)) (not (= ?v_97 (- 4))) (not (= ?v_97 21)) (not (= ?v_97 (- 21))) (not (= ?v_98 5)) (not (= ?v_98 (- 5))) (not (= ?v_98 20)) (not (= ?v_98 (- 20))) (not (= ?v_99 6)) (not (= ?v_99 (- 6))) (not (= ?v_99 19)) (not (= ?v_99 (- 19))) (not (= ?v_100 7)) (not (= ?v_100 (- 7))) (not (= ?v_100 18)) (not (= ?v_100 (- 18))) (not (= ?v_101 8)) (not (= ?v_101 (- 8))) (not (= ?v_101 17)) (not (= ?v_101 (- 17))) (not (= ?v_102 9)) (not (= ?v_102 (- 9))) (not (= ?v_102 16)) (not (= ?v_102 (- 16))) (not (= ?v_103 10)) (not (= ?v_103 (- 10))) (not (= ?v_103 15)) (not (= ?v_103 (- 15))) (not (= ?v_104 11)) (not (= ?v_104 (- 11))) (not (= ?v_104 14)) (not (= ?v_104 (- 14))) (not (= ?v_105 12)) (not (= ?v_105 (- 12))) (not (= ?v_105 13)) (not (= ?v_105 (- 13))) (not (= ?v_106 13)) (not (= ?v_106 (- 13))) (not (= ?v_106 12)) (not (= ?v_106 (- 12))) (not (= ?v_107 14)) (not (= ?v_107 (- 14))) (not (= ?v_107 11)) (not (= ?v_107 (- 11))) (not (= ?v_108 15)) (not (= ?v_108 (- 15))) (not (= ?v_108 10)) (not (= ?v_108 (- 10))) (not (= ?v_109 16)) (not (= ?v_109 (- 16))) (not (= ?v_109 9)) (not (= ?v_109 (- 9))) (not (= ?v_110 17)) (not (= ?v_110 (- 17))) (not (= ?v_110 8)) (not (= ?v_110 (- 8))) (not (= ?v_111 18)) (not (= ?v_111 (- 18))) (not (= ?v_111 7)) (not (= ?v_111 (- 7))) (not (= ?v_112 19)) (not (= ?v_112 (- 19))) (not (= ?v_112 6)) (not (= ?v_112 (- 6))) (not (= ?v_113 20)) (not (= ?v_113 (- 20))) (not (= ?v_113 5)) (not (= ?v_113 (- 5))) (not (= ?v_114 21)) (not (= ?v_114 (- 21))) (not (= ?v_114 4)) (not (= ?v_114 (- 4))) (not (= ?v_115 1)) (not (= ?v_115 (- 1))) (not (= ?v_115 24)) (not (= ?v_115 (- 24))) (not (= ?v_116 2)) (not (= ?v_116 (- 2))) (not (= ?v_116 23)) (not (= ?v_116 (- 23))) (not (= ?v_117 3)) (not (= ?v_117 (- 3))) (not (= ?v_117 22)) (not (= ?v_117 (- 22))) (not (= ?v_118 4)) (not (= ?v_118 (- 4))) (not (= ?v_118 21)) (not (= ?v_118 (- 21))) (not (= ?v_119 5)) (not (= ?v_119 (- 5))) (not (= ?v_119 20)) (not (= ?v_119 (- 20))) (not (= ?v_120 6)) (not (= ?v_120 (- 6))) (not (= ?v_120 19)) (not (= ?v_120 (- 19))) (not (= ?v_121 7)) (not (= ?v_121 (- 7))) (not (= ?v_121 18)) (not (= ?v_121 (- 18))) (not (= ?v_122 8)) (not (= ?v_122 (- 8))) (not (= ?v_122 17)) (not (= ?v_122 (- 17))) (not (= ?v_123 9)) (not (= ?v_123 (- 9))) (not (= ?v_123 16)) (not (= ?v_123 (- 16))) (not (= ?v_124 10)) (not (= ?v_124 (- 10))) (not (= ?v_124 15)) (not (= ?v_124 (- 15))) (not (= ?v_125 11)) (not (= ?v_125 (- 11))) (not (= ?v_125 14)) (not (= ?v_125 (- 14))) (not (= ?v_126 12)) (not (= ?v_126 (- 12))) (not (= ?v_126 13)) (not (= ?v_126 (- 13))) (not (= ?v_127 13)) (not (= ?v_127 (- 13))) (not (= ?v_127 12)) (not (= ?v_127 (- 12))) (not (= ?v_128 14)) (not (= ?v_128 (- 14))) (not (= ?v_128 11)) (not (= ?v_128 (- 11))) (not (= ?v_129 15)) (not (= ?v_129 (- 15))) (not (= ?v_129 10)) (not (= ?v_129 (- 10))) (not (= ?v_130 16)) (not (= ?v_130 (- 16))) (not (= ?v_130 9)) (not (= ?v_130 (- 9))) (not (= ?v_131 17)) (not (= ?v_131 (- 17))) (not (= ?v_131 8)) (not (= ?v_131 (- 8))) (not (= ?v_132 18)) (not (= ?v_132 (- 18))) (not (= ?v_132 7)) (not (= ?v_132 (- 7))) (not (= ?v_133 19)) (not (= ?v_133 (- 19))) (not (= ?v_133 6)) (not (= ?v_133 (- 6))) (not (= ?v_134 20)) (not (= ?v_134 (- 20))) (not (= ?v_134 5)) (not (= ?v_134 (- 5))) (not (= ?v_135 1)) (not (= ?v_135 (- 1))) (not (= ?v_135 24)) (not (= ?v_135 (- 24))) (not (= ?v_136 2)) (not (= ?v_136 (- 2))) (not (= ?v_136 23)) (not (= ?v_136 (- 23))) (not (= ?v_137 3)) (not (= ?v_137 (- 3))) (not (= ?v_137 22)) (not (= ?v_137 (- 22))) (not (= ?v_138 4)) (not (= ?v_138 (- 4))) (not (= ?v_138 21)) (not (= ?v_138 (- 21))) (not (= ?v_139 5)) (not (= ?v_139 (- 5))) (not (= ?v_139 20)) (not (= ?v_139 (- 20))) (not (= ?v_140 6)) (not (= ?v_140 (- 6))) (not (= ?v_140 19)) (not (= ?v_140 (- 19))) (not (= ?v_141 7)) (not (= ?v_141 (- 7))) (not (= ?v_141 18)) (not (= ?v_141 (- 18))) (not (= ?v_142 8)) (not (= ?v_142 (- 8))) (not (= ?v_142 17)) (not (= ?v_142 (- 17))) (not (= ?v_143 9)) (not (= ?v_143 (- 9))) (not (= ?v_143 16)) (not (= ?v_143 (- 16))) (not (= ?v_144 10)) (not (= ?v_144 (- 10))) (not (= ?v_144 15)) (not (= ?v_144 (- 15))) (not (= ?v_145 11)) (not (= ?v_145 (- 11))) (not (= ?v_145 14)) (not (= ?v_145 (- 14))) (not (= ?v_146 12)) (not (= ?v_146 (- 12))) (not (= ?v_146 13)) (not (= ?v_146 (- 13))) (not (= ?v_147 13)) (not (= ?v_147 (- 13))) (not (= ?v_147 12)) (not (= ?v_147 (- 12))) (not (= ?v_148 14)) (not (= ?v_148 (- 14))) (not (= ?v_148 11)) (not (= ?v_148 (- 11))) (not (= ?v_149 15)) (not (= ?v_149 (- 15))) (not (= ?v_149 10)) (not (= ?v_149 (- 10))) (not (= ?v_150 16)) (not (= ?v_150 (- 16))) (not (= ?v_150 9)) (not (= ?v_150 (- 9))) (not (= ?v_151 17)) (not (= ?v_151 (- 17))) (not (= ?v_151 8)) (not (= ?v_151 (- 8))) (not (= ?v_152 18)) (not (= ?v_152 (- 18))) (not (= ?v_152 7)) (not (= ?v_152 (- 7))) (not (= ?v_153 19)) (not (= ?v_153 (- 19))) (not (= ?v_153 6)) (not (= ?v_153 (- 6))) (not (= ?v_154 1)) (not (= ?v_154 (- 1))) (not (= ?v_154 24)) (not (= ?v_154 (- 24))) (not (= ?v_155 2)) (not (= ?v_155 (- 2))) (not (= ?v_155 23)) (not (= ?v_155 (- 23))) (not (= ?v_156 3)) (not (= ?v_156 (- 3))) (not (= ?v_156 22)) (not (= ?v_156 (- 22))) (not (= ?v_157 4)) (not (= ?v_157 (- 4))) (not (= ?v_157 21)) (not (= ?v_157 (- 21))) (not (= ?v_158 5)) (not (= ?v_158 (- 5))) (not (= ?v_158 20)) (not (= ?v_158 (- 20))) (not (= ?v_159 6)) (not (= ?v_159 (- 6))) (not (= ?v_159 19)) (not (= ?v_159 (- 19))) (not (= ?v_160 7)) (not (= ?v_160 (- 7))) (not (= ?v_160 18)) (not (= ?v_160 (- 18))) (not (= ?v_161 8)) (not (= ?v_161 (- 8))) (not (= ?v_161 17)) (not (= ?v_161 (- 17))) (not (= ?v_162 9)) (not (= ?v_162 (- 9))) (not (= ?v_162 16)) (not (= ?v_162 (- 16))) (not (= ?v_163 10)) (not (= ?v_163 (- 10))) (not (= ?v_163 15)) (not (= ?v_163 (- 15))) (not (= ?v_164 11)) (not (= ?v_164 (- 11))) (not (= ?v_164 14)) (not (= ?v_164 (- 14))) (not (= ?v_165 12)) (not (= ?v_165 (- 12))) (not (= ?v_165 13)) (not (= ?v_165 (- 13))) (not (= ?v_166 13)) (not (= ?v_166 (- 13))) (not (= ?v_166 12)) (not (= ?v_166 (- 12))) (not (= ?v_167 14)) (not (= ?v_167 (- 14))) (not (= ?v_167 11)) (not (= ?v_167 (- 11))) (not (= ?v_168 15)) (not (= ?v_168 (- 15))) (not (= ?v_168 10)) (not (= ?v_168 (- 10))) (not (= ?v_169 16)) (not (= ?v_169 (- 16))) (not (= ?v_169 9)) (not (= ?v_169 (- 9))) (not (= ?v_170 17)) (not (= ?v_170 (- 17))) (not (= ?v_170 8)) (not (= ?v_170 (- 8))) (not (= ?v_171 18)) (not (= ?v_171 (- 18))) (not (= ?v_171 7)) (not (= ?v_171 (- 7))) (not (= ?v_172 1)) (not (= ?v_172 (- 1))) (not (= ?v_172 24)) (not (= ?v_172 (- 24))) (not (= ?v_173 2)) (not (= ?v_173 (- 2))) (not (= ?v_173 23)) (not (= ?v_173 (- 23))) (not (= ?v_174 3)) (not (= ?v_174 (- 3))) (not (= ?v_174 22)) (not (= ?v_174 (- 22))) (not (= ?v_175 4)) (not (= ?v_175 (- 4))) (not (= ?v_175 21)) (not (= ?v_175 (- 21))) (not (= ?v_176 5)) (not (= ?v_176 (- 5))) (not (= ?v_176 20)) (not (= ?v_176 (- 20))) (not (= ?v_177 6)) (not (= ?v_177 (- 6))) (not (= ?v_177 19)) (not (= ?v_177 (- 19))) (not (= ?v_178 7)) (not (= ?v_178 (- 7))) (not (= ?v_178 18)) (not (= ?v_178 (- 18))) (not (= ?v_179 8)) (not (= ?v_179 (- 8))) (not (= ?v_179 17)) (not (= ?v_179 (- 17))) (not (= ?v_180 9)) (not (= ?v_180 (- 9))) (not (= ?v_180 16)) (not (= ?v_180 (- 16))) (not (= ?v_181 10)) (not (= ?v_181 (- 10))) (not (= ?v_181 15)) (not (= ?v_181 (- 15))) (not (= ?v_182 11)) (not (= ?v_182 (- 11))) (not (= ?v_182 14)) (not (= ?v_182 (- 14))) (not (= ?v_183 12)) (not (= ?v_183 (- 12))) (not (= ?v_183 13)) (not (= ?v_183 (- 13))) (not (= ?v_184 13)) (not (= ?v_184 (- 13))) (not (= ?v_184 12)) (not (= ?v_184 (- 12))) (not (= ?v_185 14)) (not (= ?v_185 (- 14))) (not (= ?v_185 11)) (not (= ?v_185 (- 11))) (not (= ?v_186 15)) (not (= ?v_186 (- 15))) (not (= ?v_186 10)) (not (= ?v_186 (- 10))) (not (= ?v_187 16)) (not (= ?v_187 (- 16))) (not (= ?v_187 9)) (not (= ?v_187 (- 9))) (not (= ?v_188 17)) (not (= ?v_188 (- 17))) (not (= ?v_188 8)) (not (= ?v_188 (- 8))) (not (= ?v_189 1)) (not (= ?v_189 (- 1))) (not (= ?v_189 24)) (not (= ?v_189 (- 24))) (not (= ?v_190 2)) (not (= ?v_190 (- 2))) (not (= ?v_190 23)) (not (= ?v_190 (- 23))) (not (= ?v_191 3)) (not (= ?v_191 (- 3))) (not (= ?v_191 22)) (not (= ?v_191 (- 22))) (not (= ?v_192 4)) (not (= ?v_192 (- 4))) (not (= ?v_192 21)) (not (= ?v_192 (- 21))) (not (= ?v_193 5)) (not (= ?v_193 (- 5))) (not (= ?v_193 20)) (not (= ?v_193 (- 20))) (not (= ?v_194 6)) (not (= ?v_194 (- 6))) (not (= ?v_194 19)) (not (= ?v_194 (- 19))) (not (= ?v_195 7)) (not (= ?v_195 (- 7))) (not (= ?v_195 18)) (not (= ?v_195 (- 18))) (not (= ?v_196 8)) (not (= ?v_196 (- 8))) (not (= ?v_196 17)) (not (= ?v_196 (- 17))) (not (= ?v_197 9)) (not (= ?v_197 (- 9))) (not (= ?v_197 16)) (not (= ?v_197 (- 16))) (not (= ?v_198 10)) (not (= ?v_198 (- 10))) (not (= ?v_198 15)) (not (= ?v_198 (- 15))) (not (= ?v_199 11)) (not (= ?v_199 (- 11))) (not (= ?v_199 14)) (not (= ?v_199 (- 14))) (not (= ?v_200 12)) (not (= ?v_200 (- 12))) (not (= ?v_200 13)) (not (= ?v_200 (- 13))) (not (= ?v_201 13)) (not (= ?v_201 (- 13))) (not (= ?v_201 12)) (not (= ?v_201 (- 12))) (not (= ?v_202 14)) (not (= ?v_202 (- 14))) (not (= ?v_202 11)) (not (= ?v_202 (- 11))) (not (= ?v_203 15)) (not (= ?v_203 (- 15))) (not (= ?v_203 10)) (not (= ?v_203 (- 10))) (not (= ?v_204 16)) (not (= ?v_204 (- 16))) (not (= ?v_204 9)) (not (= ?v_204 (- 9))) (not (= ?v_205 1)) (not (= ?v_205 (- 1))) (not (= ?v_205 24)) (not (= ?v_205 (- 24))) (not (= ?v_206 2)) (not (= ?v_206 (- 2))) (not (= ?v_206 23)) (not (= ?v_206 (- 23))) (not (= ?v_207 3)) (not (= ?v_207 (- 3))) (not (= ?v_207 22)) (not (= ?v_207 (- 22))) (not (= ?v_208 4)) (not (= ?v_208 (- 4))) (not (= ?v_208 21)) (not (= ?v_208 (- 21))) (not (= ?v_209 5)) (not (= ?v_209 (- 5))) (not (= ?v_209 20)) (not (= ?v_209 (- 20))) (not (= ?v_210 6)) (not (= ?v_210 (- 6))) (not (= ?v_210 19)) (not (= ?v_210 (- 19))) (not (= ?v_211 7)) (not (= ?v_211 (- 7))) (not (= ?v_211 18)) (not (= ?v_211 (- 18))) (not (= ?v_212 8)) (not (= ?v_212 (- 8))) (not (= ?v_212 17)) (not (= ?v_212 (- 17))) (not (= ?v_213 9)) (not (= ?v_213 (- 9))) (not (= ?v_213 16)) (not (= ?v_213 (- 16))) (not (= ?v_214 10)) (not (= ?v_214 (- 10))) (not (= ?v_214 15)) (not (= ?v_214 (- 15))) (not (= ?v_215 11)) (not (= ?v_215 (- 11))) (not (= ?v_215 14)) (not (= ?v_215 (- 14))) (not (= ?v_216 12)) (not (= ?v_216 (- 12))) (not (= ?v_216 13)) (not (= ?v_216 (- 13))) (not (= ?v_217 13)) (not (= ?v_217 (- 13))) (not (= ?v_217 12)) (not (= ?v_217 (- 12))) (not (= ?v_218 14)) (not (= ?v_218 (- 14))) (not (= ?v_218 11)) (not (= ?v_218 (- 11))) (not (= ?v_219 15)) (not (= ?v_219 (- 15))) (not (= ?v_219 10)) (not (= ?v_219 (- 10))) (not (= ?v_220 1)) (not (= ?v_220 (- 1))) (not (= ?v_220 24)) (not (= ?v_220 (- 24))) (not (= ?v_221 2)) (not (= ?v_221 (- 2))) (not (= ?v_221 23)) (not (= ?v_221 (- 23))) (not (= ?v_222 3)) (not (= ?v_222 (- 3))) (not (= ?v_222 22)) (not (= ?v_222 (- 22))) (not (= ?v_223 4)) (not (= ?v_223 (- 4))) (not (= ?v_223 21)) (not (= ?v_223 (- 21))) (not (= ?v_224 5)) (not (= ?v_224 (- 5))) (not (= ?v_224 20)) (not (= ?v_224 (- 20))) (not (= ?v_225 6)) (not (= ?v_225 (- 6))) (not (= ?v_225 19)) (not (= ?v_225 (- 19))) (not (= ?v_226 7)) (not (= ?v_226 (- 7))) (not (= ?v_226 18)) (not (= ?v_226 (- 18))) (not (= ?v_227 8)) (not (= ?v_227 (- 8))) (not (= ?v_227 17)) (not (= ?v_227 (- 17))) (not (= ?v_228 9)) (not (= ?v_228 (- 9))) (not (= ?v_228 16)) (not (= ?v_228 (- 16))) (not (= ?v_229 10)) (not (= ?v_229 (- 10))) (not (= ?v_229 15)) (not (= ?v_229 (- 15))) (not (= ?v_230 11)) (not (= ?v_230 (- 11))) (not (= ?v_230 14)) (not (= ?v_230 (- 14))) (not (= ?v_231 12)) (not (= ?v_231 (- 12))) (not (= ?v_231 13)) (not (= ?v_231 (- 13))) (not (= ?v_232 13)) (not (= ?v_232 (- 13))) (not (= ?v_232 12)) (not (= ?v_232 (- 12))) (not (= ?v_233 14)) (not (= ?v_233 (- 14))) (not (= ?v_233 11)) (not (= ?v_233 (- 11))) (not (= ?v_234 1)) (not (= ?v_234 (- 1))) (not (= ?v_234 24)) (not (= ?v_234 (- 24))) (not (= ?v_235 2)) (not (= ?v_235 (- 2))) (not (= ?v_235 23)) (not (= ?v_235 (- 23))) (not (= ?v_236 3)) (not (= ?v_236 (- 3))) (not (= ?v_236 22)) (not (= ?v_236 (- 22))) (not (= ?v_237 4)) (not (= ?v_237 (- 4))) (not (= ?v_237 21)) (not (= ?v_237 (- 21))) (not (= ?v_238 5)) (not (= ?v_238 (- 5))) (not (= ?v_238 20)) (not (= ?v_238 (- 20))) (not (= ?v_239 6)) (not (= ?v_239 (- 6))) (not (= ?v_239 19)) (not (= ?v_239 (- 19))) (not (= ?v_240 7)) (not (= ?v_240 (- 7))) (not (= ?v_240 18)) (not (= ?v_240 (- 18))) (not (= ?v_241 8)) (not (= ?v_241 (- 8))) (not (= ?v_241 17)) (not (= ?v_241 (- 17))) (not (= ?v_242 9)) (not (= ?v_242 (- 9))) (not (= ?v_242 16)) (not (= ?v_242 (- 16))) (not (= ?v_243 10)) (not (= ?v_243 (- 10))) (not (= ?v_243 15)) (not (= ?v_243 (- 15))) (not (= ?v_244 11)) (not (= ?v_244 (- 11))) (not (= ?v_244 14)) (not (= ?v_244 (- 14))) (not (= ?v_245 12)) (not (= ?v_245 (- 12))) (not (= ?v_245 13)) (not (= ?v_245 (- 13))) (not (= ?v_246 13)) (not (= ?v_246 (- 13))) (not (= ?v_246 12)) (not (= ?v_246 (- 12))) (not (= ?v_247 1)) (not (= ?v_247 (- 1))) (not (= ?v_247 24)) (not (= ?v_247 (- 24))) (not (= ?v_248 2)) (not (= ?v_248 (- 2))) (not (= ?v_248 23)) (not (= ?v_248 (- 23))) (not (= ?v_249 3)) (not (= ?v_249 (- 3))) (not (= ?v_249 22)) (not (= ?v_249 (- 22))) (not (= ?v_250 4)) (not (= ?v_250 (- 4))) (not (= ?v_250 21)) (not (= ?v_250 (- 21))) (not (= ?v_251 5)) (not (= ?v_251 (- 5))) (not (= ?v_251 20)) (not (= ?v_251 (- 20))) (not (= ?v_252 6)) (not (= ?v_252 (- 6))) (not (= ?v_252 19)) (not (= ?v_252 (- 19))) (not (= ?v_253 7)) (not (= ?v_253 (- 7))) (not (= ?v_253 18)) (not (= ?v_253 (- 18))) (not (= ?v_254 8)) (not (= ?v_254 (- 8))) (not (= ?v_254 17)) (not (= ?v_254 (- 17))) (not (= ?v_255 9)) (not (= ?v_255 (- 9))) (not (= ?v_255 16)) (not (= ?v_255 (- 16))) (not (= ?v_256 10)) (not (= ?v_256 (- 10))) (not (= ?v_256 15)) (not (= ?v_256 (- 15))) (not (= ?v_257 11)) (not (= ?v_257 (- 11))) (not (= ?v_257 14)) (not (= ?v_257 (- 14))) (not (= ?v_258 12)) (not (= ?v_258 (- 12))) (not (= ?v_258 13)) (not (= ?v_258 (- 13))) (not (= ?v_259 1)) (not (= ?v_259 (- 1))) (not (= ?v_259 24)) (not (= ?v_259 (- 24))) (not (= ?v_260 2)) (not (= ?v_260 (- 2))) (not (= ?v_260 23)) (not (= ?v_260 (- 23))) (not (= ?v_261 3)) (not (= ?v_261 (- 3))) (not (= ?v_261 22)) (not (= ?v_261 (- 22))) (not (= ?v_262 4)) (not (= ?v_262 (- 4))) (not (= ?v_262 21)) (not (= ?v_262 (- 21))) (not (= ?v_263 5)) (not (= ?v_263 (- 5))) (not (= ?v_263 20)) (not (= ?v_263 (- 20))) (not (= ?v_264 6)) (not (= ?v_264 (- 6))) (not (= ?v_264 19)) (not (= ?v_264 (- 19))) (not (= ?v_265 7)) (not (= ?v_265 (- 7))) (not (= ?v_265 18)) (not (= ?v_265 (- 18))) (not (= ?v_266 8)) (not (= ?v_266 (- 8))) (not (= ?v_266 17)) (not (= ?v_266 (- 17))) (not (= ?v_267 9)) (not (= ?v_267 (- 9))) (not (= ?v_267 16)) (not (= ?v_267 (- 16))) (not (= ?v_268 10)) (not (= ?v_268 (- 10))) (not (= ?v_268 15)) (not (= ?v_268 (- 15))) (not (= ?v_269 11)) (not (= ?v_269 (- 11))) (not (= ?v_269 14)) (not (= ?v_269 (- 14))) (not (= ?v_270 1)) (not (= ?v_270 (- 1))) (not (= ?v_270 24)) (not (= ?v_270 (- 24))) (not (= ?v_271 2)) (not (= ?v_271 (- 2))) (not (= ?v_271 23)) (not (= ?v_271 (- 23))) (not (= ?v_272 3)) (not (= ?v_272 (- 3))) (not (= ?v_272 22)) (not (= ?v_272 (- 22))) (not (= ?v_273 4)) (not (= ?v_273 (- 4))) (not (= ?v_273 21)) (not (= ?v_273 (- 21))) (not (= ?v_274 5)) (not (= ?v_274 (- 5))) (not (= ?v_274 20)) (not (= ?v_274 (- 20))) (not (= ?v_275 6)) (not (= ?v_275 (- 6))) (not (= ?v_275 19)) (not (= ?v_275 (- 19))) (not (= ?v_276 7)) (not (= ?v_276 (- 7))) (not (= ?v_276 18)) (not (= ?v_276 (- 18))) (not (= ?v_277 8)) (not (= ?v_277 (- 8))) (not (= ?v_277 17)) (not (= ?v_277 (- 17))) (not (= ?v_278 9)) (not (= ?v_278 (- 9))) (not (= ?v_278 16)) (not (= ?v_278 (- 16))) (not (= ?v_279 10)) (not (= ?v_279 (- 10))) (not (= ?v_279 15)) (not (= ?v_279 (- 15))) (not (= ?v_280 1)) (not (= ?v_280 (- 1))) (not (= ?v_280 24)) (not (= ?v_280 (- 24))) (not (= ?v_281 2)) (not (= ?v_281 (- 2))) (not (= ?v_281 23)) (not (= ?v_281 (- 23))) (not (= ?v_282 3)) (not (= ?v_282 (- 3))) (not (= ?v_282 22)) (not (= ?v_282 (- 22))) (not (= ?v_283 4)) (not (= ?v_283 (- 4))) (not (= ?v_283 21)) (not (= ?v_283 (- 21))) (not (= ?v_284 5)) (not (= ?v_284 (- 5))) (not (= ?v_284 20)) (not (= ?v_284 (- 20))) (not (= ?v_285 6)) (not (= ?v_285 (- 6))) (not (= ?v_285 19)) (not (= ?v_285 (- 19))) (not (= ?v_286 7)) (not (= ?v_286 (- 7))) (not (= ?v_286 18)) (not (= ?v_286 (- 18))) (not (= ?v_287 8)) (not (= ?v_287 (- 8))) (not (= ?v_287 17)) (not (= ?v_287 (- 17))) (not (= ?v_288 9)) (not (= ?v_288 (- 9))) (not (= ?v_288 16)) (not (= ?v_288 (- 16))) (not (= ?v_289 1)) (not (= ?v_289 (- 1))) (not (= ?v_289 24)) (not (= ?v_289 (- 24))) (not (= ?v_290 2)) (not (= ?v_290 (- 2))) (not (= ?v_290 23)) (not (= ?v_290 (- 23))) (not (= ?v_291 3)) (not (= ?v_291 (- 3))) (not (= ?v_291 22)) (not (= ?v_291 (- 22))) (not (= ?v_292 4)) (not (= ?v_292 (- 4))) (not (= ?v_292 21)) (not (= ?v_292 (- 21))) (not (= ?v_293 5)) (not (= ?v_293 (- 5))) (not (= ?v_293 20)) (not (= ?v_293 (- 20))) (not (= ?v_294 6)) (not (= ?v_294 (- 6))) (not (= ?v_294 19)) (not (= ?v_294 (- 19))) (not (= ?v_295 7)) (not (= ?v_295 (- 7))) (not (= ?v_295 18)) (not (= ?v_295 (- 18))) (not (= ?v_296 8)) (not (= ?v_296 (- 8))) (not (= ?v_296 17)) (not (= ?v_296 (- 17))) (not (= ?v_297 1)) (not (= ?v_297 (- 1))) (not (= ?v_297 24)) (not (= ?v_297 (- 24))) (not (= ?v_298 2)) (not (= ?v_298 (- 2))) (not (= ?v_298 23)) (not (= ?v_298 (- 23))) (not (= ?v_299 3)) (not (= ?v_299 (- 3))) (not (= ?v_299 22)) (not (= ?v_299 (- 22))) (not (= ?v_300 4)) (not (= ?v_300 (- 4))) (not (= ?v_300 21)) (not (= ?v_300 (- 21))) (not (= ?v_301 5)) (not (= ?v_301 (- 5))) (not (= ?v_301 20)) (not (= ?v_301 (- 20))) (not (= ?v_302 6)) (not (= ?v_302 (- 6))) (not (= ?v_302 19)) (not (= ?v_302 (- 19))) (not (= ?v_303 7)) (not (= ?v_303 (- 7))) (not (= ?v_303 18)) (not (= ?v_303 (- 18))) (not (= ?v_304 1)) (not (= ?v_304 (- 1))) (not (= ?v_304 24)) (not (= ?v_304 (- 24))) (not (= ?v_305 2)) (not (= ?v_305 (- 2))) (not (= ?v_305 23)) (not (= ?v_305 (- 23))) (not (= ?v_306 3)) (not (= ?v_306 (- 3))) (not (= ?v_306 22)) (not (= ?v_306 (- 22))) (not (= ?v_307 4)) (not (= ?v_307 (- 4))) (not (= ?v_307 21)) (not (= ?v_307 (- 21))) (not (= ?v_308 5)) (not (= ?v_308 (- 5))) (not (= ?v_308 20)) (not (= ?v_308 (- 20))) (not (= ?v_309 6)) (not (= ?v_309 (- 6))) (not (= ?v_309 19)) (not (= ?v_309 (- 19))) (not (= ?v_310 1)) (not (= ?v_310 (- 1))) (not (= ?v_310 24)) (not (= ?v_310 (- 24))) (not (= ?v_311 2)) (not (= ?v_311 (- 2))) (not (= ?v_311 23)) (not (= ?v_311 (- 23))) (not (= ?v_312 3)) (not (= ?v_312 (- 3))) (not (= ?v_312 22)) (not (= ?v_312 (- 22))) (not (= ?v_313 4)) (not (= ?v_313 (- 4))) (not (= ?v_313 21)) (not (= ?v_313 (- 21))) (not (= ?v_314 5)) (not (= ?v_314 (- 5))) (not (= ?v_314 20)) (not (= ?v_314 (- 20))) (not (= ?v_315 1)) (not (= ?v_315 (- 1))) (not (= ?v_315 24)) (not (= ?v_315 (- 24))) (not (= ?v_316 2)) (not (= ?v_316 (- 2))) (not (= ?v_316 23)) (not (= ?v_316 (- 23))) (not (= ?v_317 3)) (not (= ?v_317 (- 3))) (not (= ?v_317 22)) (not (= ?v_317 (- 22))) (not (= ?v_318 4)) (not (= ?v_318 (- 4))) (not (= ?v_318 21)) (not (= ?v_318 (- 21))) (not (= ?v_319 1)) (not (= ?v_319 (- 1))) (not (= ?v_319 24)) (not (= ?v_319 (- 24))) (not (= ?v_320 2)) (not (= ?v_320 (- 2))) (not (= ?v_320 23)) (not (= ?v_320 (- 23))) (not (= ?v_321 3)) (not (= ?v_321 (- 3))) (not (= ?v_321 22)) (not (= ?v_321 (- 22))) (not (= ?v_322 1)) (not (= ?v_322 (- 1))) (not (= ?v_322 24)) (not (= ?v_322 (- 24))) (not (= ?v_323 2)) (not (= ?v_323 (- 2))) (not (= ?v_323 23)) (not (= ?v_323 (- 23))) (not (= ?v_324 1)) (not (= ?v_324 (- 1))) (not (= ?v_324 24)) (not (= ?v_324 (- 24))))))
(check-sat)
(exit)
